p edge 250 3132
e 1 24
e 1 25
e 1 30
e 1 70
e 1 71
e 1 72
e 1 81
e 1 99
e 1 117
e 1 162
e 1 172
e 1 208
e 1 248
e 2 22
e 2 24
e 2 31
e 2 35
e 2 46
e 2 50
e 2 70
e 2 83
e 2 87
e 2 88
e 2 90
e 2 95
e 2 97
e 2 114
e 2 133
e 2 134
e 2 137
e 2 152
e 2 160
e 2 173
e 2 187
e 2 190
e 2 192
e 2 205
e 2 208
e 2 216
e 2 218
e 2 220
e 2 221
e 2 229
e 2 241
e 2 245
e 2 246
e 3 15
e 3 27
e 3 31
e 3 51
e 3 58
e 3 60
e 3 76
e 3 116
e 3 118
e 3 134
e 3 167
e 3 172
e 3 180
e 3 189
e 3 205
e 3 212
e 3 224
e 3 226
e 3 247
e 4 39
e 4 46
e 4 49
e 4 61
e 4 65
e 4 74
e 4 76
e 4 80
e 4 81
e 4 85
e 4 86
e 4 92
e 4 107
e 4 111
e 4 121
e 4 123
e 4 125
e 4 131
e 4 134
e 4 136
e 4 172
e 4 188
e 4 198
e 4 202
e 4 217
e 4 224
e 4 231
e 4 245
e 4 247
e 4 250
e 5 31
e 5 38
e 5 52
e 5 54
e 5 59
e 5 74
e 5 81
e 5 90
e 5 106
e 5 107
e 5 127
e 5 129
e 5 135
e 5 166
e 5 184
e 5 185
e 5 216
e 5 224
e 5 227
e 5 244
e 5 245
e 6 17
e 6 26
e 6 64
e 6 74
e 6 86
e 6 88
e 6 95
e 6 104
e 6 110
e 6 148
e 6 157
e 6 164
e 6 185
e 6 186
e 6 192
e 6 206
e 6 207
e 6 220
e 7 20
e 7 24
e 7 45
e 7 47
e 7 54
e 7 68
e 7 76
e 7 79
e 7 80
e 7 104
e 7 119
e 7 137
e 7 145
e 7 151
e 7 153
e 7 154
e 7 155
e 7 174
e 7 181
e 7 199
e 7 200
e 7 211
e 7 213
e 8 41
e 8 58
e 8 61
e 8 75
e 8 78
e 8 88
e 8 112
e 8 117
e 8 119
e 8 122
e 8 137
e 8 194
e 8 197
e 8 198
e 8 203
e 8 208
e 8 219
e 8 220
e 8 230
e 8 236
e 9 10
e 9 15
e 9 16
e 9 32
e 9 51
e 9 52
e 9 55
e 9 57
e 9 63
e 9 64
e 9 94
e 9 107
e 9 109
e 9 112
e 9 116
e 9 129
e 9 132
e 9 135
e 9 156
e 9 157
e 9 159
e 9 160
e 9 201
e 9 222
e 9 242
e 10 31
e 10 33
e 10 34
e 10 45
e 10 56
e 10 59
e 10 64
e 10 65
e 10 67
e 10 73
e 10 76
e 10 91
e 10 97
e 10 103
e 10 107
e 10 113
e 10 114
e 10 133
e 10 135
e 10 138
e 10 157
e 10 161
e 10 168
e 10 175
e 10 183
e 10 192
e 10 196
e 10 211
e 10 238
e 11 21
e 11 23
e 11 26
e 11 30
e 11 37
e 11 46
e 11 55
e 11 63
e 11 65
e 11 66
e 11 76
e 11 93
e 11 101
e 11 119
e 11 123
e 11 131
e 11 143
e 11 148
e 11 153
e 11 162
e 11 173
e 11 181
e 11 190
e 11 195
e 11 212
e 11 214
e 11 217
e 11 220
e 11 222
e 11 227
e 11 240
e 12 19
e 12 24
e 12 29
e 12 30
e 12 34
e 12 37
e 12 39
e 12 43
e 12 60
e 12 66
e 12 70
e 12 76
e 12 81
e 12 86
e 12 88
e 12 91
e 12 99
e 12 109
e 12 110
e 12 125
e 12 178
e 12 192
e 12 238
e 13 29
e 13 41
e 13 43
e 13 59
e 13 78
e 13 85
e 13 102
e 13 138
e 13 146
e 13 227
e 13 231
e 13 235
e 13 249
e 14 17
e 14 40
e 14 77
e 14 80
e 14 81
e 14 98
e 14 99
e 14 126
e 14 128
e 14 130
e 14 171
e 14 195
e 14 207
e 14 211
e 14 215
e 14 218
e 14 223
e 14 232
e 14 240
e 14 245
e 15 29
e 15 38
e 15 40
e 15 42
e 15 43
e 15 73
e 15 80
e 15 81
e 15 119
e 15 122
e 15 134
e 15 144
e 15 146
e 15 159
e 15 163
e 15 166
e 15 178
e 15 186
e 15 215
e 15 234
e 16 21
e 16 25
e 16 30
e 16 35
e 16 36
e 16 47
e 16 56
e 16 57
e 16 78
e 16 90
e 16 91
e 16 105
e 16 108
e 16 119
e 16 122
e 16 129
e 16 134
e 16 136
e 16 140
e 16 143
e 16 161
e 16 176
e 16 179
e 16 196
e 16 212
e 16 232
e 16 235
e 16 236
e 17 22
e 17 25
e 17 42
e 17 43
e 17 57
e 17 58
e 17 79
e 17 83
e 17 85
e 17 91
e 17 111
e 17 120
e 17 156
e 17 158
e 17 169
e 17 186
e 17 203
e 17 205
e 17 206
e 17 221
e 17 222
e 17 225
e 17 244
e 18 25
e 18 35
e 18 36
e 18 44
e 18 50
e 18 51
e 18 54
e 18 55
e 18 65
e 18 79
e 18 86
e 18 90
e 18 106
e 18 135
e 18 146
e 18 155
e 18 162
e 18 168
e 18 171
e 18 174
e 18 187
e 18 194
e 18 210
e 18 212
e 18 213
e 18 238
e 19 21
e 19 31
e 19 36
e 19 39
e 19 45
e 19 78
e 19 93
e 19 95
e 19 100
e 19 102
e 19 115
e 19 116
e 19 121
e 19 129
e 19 140
e 19 148
e 19 161
e 19 178
e 19 185
e 19 211
e 19 213
e 19 219
e 19 227
e 19 239
e 20 30
e 20 50
e 20 80
e 20 85
e 20 89
e 20 101
e 20 105
e 20 122
e 20 124
e 20 143
e 20 153
e 20 183
e 20 196
e 20 219
e 20 234
e 20 235
e 20 242
e 20 243
e 21 26
e 21 27
e 21 29
e 21 35
e 21 53
e 21 87
e 21 134
e 21 135
e 21 136
e 21 147
e 21 149
e 21 164
e 21 182
e 21 183
e 21 184
e 21 186
e 21 194
e 21 197
e 21 201
e 21 213
e 21 227
e 22 43
e 22 47
e 22 53
e 22 58
e 22 61
e 22 76
e 22 83
e 22 91
e 22 92
e 22 94
e 22 97
e 22 111
e 22 123
e 22 128
e 22 136
e 22 138
e 22 180
e 22 181
e 22 208
e 22 213
e 22 229
e 22 239
e 23 34
e 23 40
e 23 45
e 23 53
e 23 58
e 23 78
e 23 88
e 23 98
e 23 101
e 23 104
e 23 105
e 23 109
e 23 116
e 23 117
e 23 119
e 23 129
e 23 150
e 23 159
e 23 186
e 23 190
e 23 201
e 23 205
e 23 209
e 23 221
e 23 223
e 23 230
e 23 236
e 24 26
e 24 31
e 24 41
e 24 48
e 24 52
e 24 58
e 24 62
e 24 76
e 24 81
e 24 97
e 24 111
e 24 128
e 24 133
e 24 138
e 24 152
e 24 167
e 24 169
e 24 176
e 24 178
e 24 188
e 24 189
e 24 197
e 24 199
e 24 218
e 24 222
e 24 226
e 24 227
e 24 228
e 24 229
e 24 233
e 24 235
e 24 242
e 25 48
e 25 59
e 25 64
e 25 72
e 25 73
e 25 75
e 25 91
e 25 92
e 25 93
e 25 104
e 25 106
e 25 132
e 25 134
e 25 142
e 25 146
e 25 155
e 25 159
e 25 160
e 25 180
e 25 189
e 25 198
e 25 199
e 25 205
e 25 209
e 25 210
e 25 226
e 25 233
e 25 236
e 25 239
e 25 245
e 25 248
e 26 30
e 26 31
e 26 42
e 26 44
e 26 45
e 26 61
e 26 65
e 26 106
e 26 120
e 26 124
e 26 156
e 26 175
e 26 197
e 26 200
e 26 204
e 26 205
e 26 224
e 26 240
e 26 249
e 26 250
e 27 46
e 27 58
e 27 71
e 27 79
e 27 86
e 27 87
e 27 101
e 27 106
e 27 119
e 27 127
e 27 139
e 27 149
e 27 164
e 27 170
e 27 176
e 27 177
e 27 188
e 27 191
e 27 206
e 27 221
e 27 236
e 28 29
e 28 40
e 28 46
e 28 67
e 28 71
e 28 93
e 28 98
e 28 104
e 28 113
e 28 118
e 28 125
e 28 158
e 28 160
e 28 184
e 28 190
e 28 206
e 28 217
e 28 237
e 28 242
e 28 247
e 28 250
e 29 37
e 29 83
e 29 86
e 29 88
e 29 98
e 29 102
e 29 119
e 29 127
e 29 128
e 29 136
e 29 139
e 29 143
e 29 160
e 29 168
e 29 184
e 29 202
e 29 211
e 29 218
e 29 221
e 29 233
e 29 234
e 29 247
e 30 43
e 30 49
e 30 66
e 30 69
e 30 71
e 30 75
e 30 92
e 30 98
e 30 120
e 30 144
e 30 148
e 30 170
e 30 186
e 30 197
e 30 213
e 30 215
e 30 220
e 30 221
e 30 224
e 30 242
e 30 247
e 30 248
e 31 36
e 31 49
e 31 50
e 31 52
e 31 61
e 31 76
e 31 82
e 31 83
e 31 117
e 31 123
e 31 144
e 31 159
e 31 185
e 31 196
e 31 201
e 31 206
e 31 219
e 31 224
e 31 229
e 31 233
e 31 240
e 32 37
e 32 41
e 32 45
e 32 46
e 32 53
e 32 56
e 32 57
e 32 67
e 32 73
e 32 92
e 32 98
e 32 106
e 32 123
e 32 138
e 32 141
e 32 166
e 32 175
e 32 187
e 32 207
e 32 214
e 32 221
e 32 225
e 33 34
e 33 37
e 33 39
e 33 49
e 33 50
e 33 51
e 33 80
e 33 81
e 33 84
e 33 86
e 33 92
e 33 100
e 33 104
e 33 106
e 33 109
e 33 117
e 33 129
e 33 136
e 33 166
e 33 167
e 33 171
e 33 180
e 33 242
e 33 243
e 33 250
e 34 40
e 34 45
e 34 49
e 34 63
e 34 65
e 34 80
e 34 83
e 34 89
e 34 92
e 34 117
e 34 127
e 34 162
e 34 168
e 34 170
e 34 196
e 34 209
e 34 235
e 35 57
e 35 66
e 35 74
e 35 86
e 35 90
e 35 96
e 35 109
e 35 111
e 35 118
e 35 129
e 35 130
e 35 132
e 35 144
e 35 161
e 35 165
e 35 171
e 35 181
e 35 200
e 35 207
e 35 218
e 35 231
e 35 241
e 36 41
e 36 48
e 36 56
e 36 79
e 36 94
e 36 97
e 36 103
e 36 109
e 36 114
e 36 124
e 36 143
e 36 151
e 36 161
e 36 163
e 36 178
e 36 179
e 36 194
e 36 196
e 36 202
e 36 215
e 36 218
e 36 225
e 36 229
e 36 247
e 37 54
e 37 60
e 37 65
e 37 71
e 37 73
e 37 91
e 37 115
e 37 117
e 37 128
e 37 136
e 37 143
e 37 164
e 37 165
e 37 171
e 37 175
e 37 178
e 37 179
e 37 182
e 37 221
e 37 241
e 37 250
e 38 49
e 38 54
e 38 62
e 38 74
e 38 102
e 38 103
e 38 107
e 38 118
e 38 119
e 38 126
e 38 129
e 38 143
e 38 149
e 38 151
e 38 161
e 38 163
e 38 164
e 38 174
e 38 176
e 38 198
e 38 206
e 38 219
e 38 221
e 38 244
e 39 55
e 39 77
e 39 79
e 39 117
e 39 124
e 39 159
e 39 163
e 39 206
e 39 207
e 39 215
e 39 219
e 40 53
e 40 60
e 40 68
e 40 90
e 40 108
e 40 121
e 40 132
e 40 169
e 40 171
e 40 183
e 40 197
e 40 198
e 40 205
e 40 207
e 40 220
e 40 226
e 40 231
e 40 239
e 41 44
e 41 56
e 41 67
e 41 111
e 41 132
e 41 138
e 41 156
e 41 163
e 41 164
e 41 182
e 41 189
e 41 190
e 41 200
e 41 213
e 41 216
e 41 224
e 41 242
e 42 43
e 42 52
e 42 114
e 42 124
e 42 140
e 42 144
e 42 147
e 42 170
e 42 171
e 42 181
e 42 189
e 42 191
e 42 193
e 42 195
e 42 199
e 42 203
e 42 209
e 42 214
e 42 218
e 42 221
e 42 233
e 42 234
e 43 64
e 43 70
e 43 74
e 43 81
e 43 83
e 43 84
e 43 86
e 43 94
e 43 113
e 43 126
e 43 132
e 43 133
e 43 147
e 43 154
e 43 168
e 43 223
e 43 226
e 43 227
e 43 229
e 43 230
e 43 233
e 44 61
e 44 66
e 44 105
e 44 116
e 44 127
e 44 148
e 44 154
e 44 155
e 44 158
e 44 177
e 44 186
e 44 193
e 44 194
e 44 209
e 44 215
e 44 216
e 44 223
e 44 237
e 44 242
e 45 60
e 45 69
e 45 113
e 45 118
e 45 123
e 45 127
e 45 130
e 45 139
e 45 148
e 45 151
e 45 152
e 45 169
e 45 181
e 45 186
e 45 191
e 45 197
e 45 198
e 45 219
e 45 223
e 45 234
e 45 246
e 46 47
e 46 51
e 46 73
e 46 79
e 46 109
e 46 127
e 46 133
e 46 150
e 46 179
e 46 187
e 46 191
e 46 203
e 46 205
e 46 206
e 46 239
e 47 58
e 47 59
e 47 62
e 47 65
e 47 69
e 47 70
e 47 75
e 47 88
e 47 90
e 47 94
e 47 124
e 47 129
e 47 143
e 47 148
e 47 164
e 47 203
e 47 206
e 47 226
e 47 231
e 47 233
e 48 51
e 48 69
e 48 85
e 48 105
e 48 110
e 48 118
e 48 132
e 48 137
e 48 140
e 48 142
e 48 152
e 48 163
e 48 181
e 48 201
e 48 211
e 48 216
e 48 217
e 48 231
e 48 235
e 48 239
e 48 246
e 48 249
e 49 60
e 49 78
e 49 84
e 49 87
e 49 90
e 49 92
e 49 103
e 49 120
e 49 136
e 49 145
e 49 150
e 49 170
e 49 177
e 49 180
e 49 184
e 49 196
e 49 201
e 49 249
e 50 57
e 50 75
e 50 81
e 50 83
e 50 89
e 50 92
e 50 93
e 50 97
e 50 102
e 50 108
e 50 118
e 50 141
e 50 148
e 50 155
e 50 164
e 50 173
e 50 177
e 50 181
e 50 185
e 50 195
e 50 200
e 50 201
e 50 204
e 50 209
e 50 222
e 50 228
e 50 239
e 50 248
e 51 55
e 51 58
e 51 61
e 51 73
e 51 81
e 51 86
e 51 87
e 51 93
e 51 108
e 51 145
e 51 149
e 51 166
e 51 167
e 51 176
e 51 178
e 51 186
e 51 189
e 51 208
e 51 210
e 51 238
e 52 53
e 52 61
e 52 78
e 52 79
e 52 80
e 52 81
e 52 94
e 52 97
e 52 100
e 52 101
e 52 102
e 52 107
e 52 111
e 52 114
e 52 115
e 52 128
e 52 133
e 52 135
e 52 157
e 52 169
e 52 178
e 52 181
e 52 199
e 52 202
e 52 207
e 52 209
e 52 211
e 52 223
e 52 233
e 52 236
e 52 240
e 52 247
e 53 73
e 53 85
e 53 86
e 53 95
e 53 96
e 53 99
e 53 101
e 53 117
e 53 129
e 53 136
e 53 141
e 53 151
e 53 164
e 53 166
e 53 183
e 53 199
e 54 55
e 54 65
e 54 69
e 54 79
e 54 84
e 54 87
e 54 96
e 54 107
e 54 109
e 54 137
e 54 139
e 54 146
e 54 160
e 54 163
e 54 177
e 54 187
e 54 194
e 54 199
e 54 218
e 54 220
e 54 241
e 55 73
e 55 76
e 55 99
e 55 108
e 55 136
e 55 146
e 55 150
e 55 160
e 55 176
e 55 181
e 55 185
e 55 189
e 55 196
e 55 197
e 55 198
e 55 232
e 55 239
e 55 248
e 56 89
e 56 100
e 56 143
e 56 151
e 56 172
e 56 179
e 56 190
e 56 199
e 56 205
e 56 208
e 56 211
e 56 213
e 56 237
e 56 242
e 56 245
e 57 59
e 57 68
e 57 69
e 57 87
e 57 91
e 57 94
e 57 110
e 57 118
e 57 119
e 57 120
e 57 140
e 57 146
e 57 149
e 57 177
e 57 179
e 57 198
e 57 202
e 57 208
e 57 221
e 57 232
e 58 65
e 58 88
e 58 110
e 58 125
e 58 153
e 58 159
e 58 188
e 58 222
e 58 224
e 58 230
e 58 236
e 58 248
e 58 250
e 59 69
e 59 70
e 59 80
e 59 90
e 59 104
e 59 109
e 59 110
e 59 111
e 59 119
e 59 131
e 59 134
e 59 147
e 59 149
e 59 152
e 59 161
e 59 170
e 59 172
e 59 189
e 59 194
e 59 196
e 59 201
e 59 216
e 59 226
e 59 230
e 60 78
e 60 85
e 60 86
e 60 111
e 60 112
e 60 135
e 60 142
e 60 143
e 60 148
e 60 159
e 60 171
e 60 196
e 60 206
e 60 220
e 60 225
e 61 89
e 61 107
e 61 109
e 61 124
e 61 129
e 61 132
e 61 141
e 61 147
e 61 175
e 61 178
e 61 219
e 61 227
e 61 236
e 61 246
e 62 91
e 62 99
e 62 140
e 62 145
e 62 183
e 62 186
e 62 220
e 62 232
e 62 240
e 62 248
e 63 72
e 63 79
e 63 91
e 63 104
e 63 123
e 63 127
e 63 137
e 63 139
e 63 180
e 63 182
e 63 199
e 63 207
e 63 222
e 63 227
e 63 233
e 63 236
e 63 249
e 64 83
e 64 97
e 64 104
e 64 116
e 64 117
e 64 121
e 64 125
e 64 132
e 64 147
e 64 162
e 64 164
e 64 183
e 64 187
e 64 188
e 64 196
e 64 198
e 64 200
e 64 209
e 64 235
e 64 246
e 65 66
e 65 68
e 65 72
e 65 74
e 65 78
e 65 96
e 65 114
e 65 125
e 65 135
e 65 145
e 65 158
e 65 173
e 65 181
e 65 184
e 65 188
e 65 204
e 65 208
e 65 209
e 65 211
e 65 212
e 65 244
e 66 70
e 66 75
e 66 98
e 66 130
e 66 152
e 66 169
e 66 171
e 66 179
e 66 181
e 66 182
e 66 194
e 66 201
e 66 203
e 66 219
e 67 83
e 67 88
e 67 91
e 67 104
e 67 109
e 67 140
e 67 142
e 67 144
e 67 204
e 67 211
e 67 250
e 68 88
e 68 99
e 68 114
e 68 118
e 68 121
e 68 122
e 68 125
e 68 144
e 68 146
e 68 167
e 68 181
e 68 185
e 68 206
e 68 222
e 68 237
e 68 244
e 68 247
e 68 249
e 69 71
e 69 90
e 69 96
e 69 98
e 69 104
e 69 108
e 69 113
e 69 117
e 69 123
e 69 138
e 69 147
e 69 149
e 69 160
e 69 163
e 69 185
e 69 191
e 69 196
e 69 199
e 69 209
e 69 218
e 69 231
e 69 232
e 70 74
e 70 77
e 70 82
e 70 83
e 70 102
e 70 106
e 70 115
e 70 155
e 70 163
e 70 166
e 70 177
e 70 198
e 70 201
e 70 204
e 70 213
e 70 215
e 70 223
e 70 227
e 71 84
e 71 86
e 71 91
e 71 100
e 71 110
e 71 130
e 71 140
e 71 142
e 71 152
e 71 159
e 71 165
e 71 180
e 71 182
e 71 218
e 71 219
e 71 221
e 71 228
e 71 241
e 71 245
e 72 94
e 72 97
e 72 102
e 72 116
e 72 118
e 72 120
e 72 126
e 72 127
e 72 139
e 72 172
e 72 184
e 72 190
e 72 199
e 72 206
e 72 211
e 72 243
e 72 249
e 73 78
e 73 82
e 73 97
e 73 99
e 73 105
e 73 107
e 73 114
e 73 141
e 73 144
e 73 151
e 73 163
e 73 168
e 73 177
e 73 182
e 73 188
e 73 196
e 73 198
e 73 203
e 73 211
e 73 218
e 73 243
e 73 244
e 73 247
e 74 87
e 74 94
e 74 100
e 74 123
e 74 124
e 74 128
e 74 137
e 74 155
e 74 162
e 74 166
e 74 167
e 74 168
e 74 171
e 74 173
e 74 188
e 74 191
e 74 193
e 74 194
e 74 203
e 74 205
e 74 207
e 74 209
e 74 213
e 74 233
e 74 238
e 75 89
e 75 95
e 75 100
e 75 101
e 75 116
e 75 119
e 75 122
e 75 127
e 75 161
e 75 162
e 75 166
e 75 169
e 75 184
e 75 188
e 75 189
e 75 199
e 75 212
e 75 215
e 75 234
e 75 237
e 75 240
e 75 250
e 76 97
e 76 116
e 76 132
e 76 148
e 76 150
e 76 154
e 76 166
e 76 174
e 76 175
e 76 190
e 76 197
e 76 202
e 76 212
e 76 219
e 76 221
e 76 228
e 76 233
e 76 242
e 77 78
e 77 79
e 77 87
e 77 109
e 77 110
e 77 121
e 77 127
e 77 145
e 77 152
e 77 167
e 77 171
e 77 190
e 77 204
e 77 218
e 77 220
e 77 228
e 77 229
e 78 88
e 78 115
e 78 120
e 78 127
e 78 128
e 78 133
e 78 137
e 78 139
e 78 142
e 78 154
e 78 165
e 78 167
e 78 169
e 78 182
e 78 185
e 78 193
e 78 199
e 78 224
e 78 225
e 78 232
e 78 238
e 78 239
e 79 80
e 79 86
e 79 89
e 79 97
e 79 100
e 79 115
e 79 129
e 79 137
e 79 150
e 79 151
e 79 157
e 79 169
e 79 194
e 79 196
e 79 198
e 79 219
e 79 231
e 79 239
e 79 243
e 80 96
e 80 108
e 80 109
e 80 129
e 80 131
e 80 135
e 80 145
e 80 152
e 80 194
e 80 201
e 80 208
e 80 231
e 81 93
e 81 96
e 81 99
e 81 105
e 81 124
e 81 126
e 81 135
e 81 138
e 81 140
e 81 151
e 81 167
e 81 173
e 81 178
e 81 182
e 81 195
e 81 197
e 81 202
e 81 204
e 81 207
e 81 208
e 81 210
e 81 214
e 81 222
e 81 231
e 81 235
e 81 244
e 82 84
e 82 94
e 82 97
e 82 98
e 82 103
e 82 116
e 82 138
e 82 151
e 82 160
e 82 187
e 82 209
e 82 243
e 82 250
e 83 89
e 83 97
e 83 103
e 83 114
e 83 120
e 83 121
e 83 128
e 83 133
e 83 145
e 83 151
e 83 166
e 83 170
e 83 177
e 83 184
e 83 185
e 83 196
e 83 201
e 83 202
e 83 246
e 83 247
e 84 88
e 84 91
e 84 94
e 84 95
e 84 105
e 84 108
e 84 127
e 84 133
e 84 146
e 84 148
e 84 149
e 84 159
e 84 172
e 84 183
e 84 239
e 84 248
e 85 90
e 85 99
e 85 112
e 85 131
e 85 134
e 85 135
e 85 136
e 85 140
e 85 145
e 85 152
e 85 164
e 85 173
e 85 188
e 85 189
e 85 204
e 85 206
e 85 223
e 85 227
e 85 242
e 85 244
e 86 93
e 86 106
e 86 110
e 86 112
e 86 123
e 86 128
e 86 158
e 86 160
e 86 167
e 86 186
e 86 197
e 86 199
e 86 247
e 87 113
e 87 117
e 87 118
e 87 129
e 87 130
e 87 146
e 87 177
e 87 178
e 87 184
e 87 189
e 87 192
e 87 195
e 87 198
e 87 205
e 87 211
e 87 215
e 87 228
e 88 100
e 88 131
e 88 138
e 88 161
e 88 171
e 88 194
e 88 213
e 88 218
e 88 226
e 88 236
e 88 243
e 88 245
e 89 106
e 89 122
e 89 145
e 89 146
e 89 147
e 89 156
e 89 173
e 89 190
e 89 200
e 89 213
e 89 215
e 89 222
e 89 240
e 90 129
e 90 149
e 90 153
e 90 163
e 90 177
e 90 187
e 90 197
e 90 199
e 90 203
e 90 206
e 90 214
e 90 219
e 90 226
e 90 233
e 91 92
e 91 93
e 91 100
e 91 114
e 91 128
e 91 132
e 91 143
e 91 148
e 91 153
e 91 161
e 91 171
e 91 173
e 91 181
e 91 210
e 91 211
e 91 213
e 91 220
e 91 245
e 92 110
e 92 119
e 92 122
e 92 151
e 92 154
e 92 157
e 92 160
e 92 164
e 92 166
e 92 193
e 92 196
e 92 208
e 92 220
e 92 223
e 93 98
e 93 99
e 93 101
e 93 124
e 93 127
e 93 133
e 93 135
e 93 162
e 93 191
e 93 198
e 93 199
e 93 215
e 93 221
e 93 223
e 93 246
e 94 97
e 94 120
e 94 131
e 94 149
e 94 161
e 94 185
e 94 188
e 94 215
e 94 221
e 94 229
e 94 232
e 94 247
e 95 98
e 95 102
e 95 122
e 95 129
e 95 130
e 95 134
e 95 140
e 95 142
e 95 171
e 95 185
e 95 197
e 95 220
e 95 227
e 95 239
e 95 242
e 96 111
e 96 116
e 96 123
e 96 134
e 96 142
e 96 147
e 96 178
e 96 184
e 96 194
e 96 205
e 96 209
e 96 227
e 96 233
e 96 243
e 97 133
e 97 137
e 97 140
e 97 145
e 97 146
e 97 149
e 97 150
e 97 160
e 97 166
e 97 187
e 97 227
e 97 229
e 97 235
e 97 238
e 97 249
e 98 101
e 98 106
e 98 109
e 98 116
e 98 127
e 98 132
e 98 136
e 98 152
e 98 157
e 98 159
e 98 181
e 98 189
e 98 195
e 98 203
e 98 211
e 99 129
e 99 131
e 99 138
e 99 139
e 99 142
e 99 145
e 99 154
e 99 171
e 99 172
e 99 193
e 99 195
e 99 198
e 99 206
e 99 207
e 99 215
e 99 220
e 99 224
e 99 242
e 99 246
e 99 247
e 100 104
e 100 120
e 100 127
e 100 129
e 100 144
e 100 148
e 100 152
e 100 156
e 100 159
e 100 176
e 100 178
e 100 180
e 100 190
e 100 199
e 100 212
e 100 221
e 101 111
e 101 120
e 101 141
e 101 150
e 101 158
e 101 164
e 101 166
e 101 176
e 101 179
e 101 192
e 101 195
e 101 209
e 101 218
e 101 224
e 101 228
e 102 136
e 102 150
e 102 154
e 102 157
e 102 163
e 102 166
e 102 181
e 102 190
e 102 191
e 102 194
e 102 198
e 102 208
e 102 221
e 102 222
e 102 226
e 102 246
e 103 104
e 103 106
e 103 123
e 103 125
e 103 130
e 103 144
e 103 153
e 103 180
e 103 189
e 103 190
e 103 192
e 103 196
e 103 198
e 103 211
e 103 237
e 104 134
e 104 136
e 104 137
e 104 139
e 104 141
e 104 143
e 104 154
e 104 175
e 104 179
e 104 186
e 104 191
e 104 207
e 104 208
e 104 213
e 104 220
e 104 244
e 105 106
e 105 111
e 105 121
e 105 126
e 105 141
e 105 151
e 105 171
e 105 179
e 105 204
e 105 214
e 105 228
e 105 233
e 105 236
e 105 237
e 106 112
e 106 117
e 106 118
e 106 133
e 106 134
e 106 135
e 106 137
e 106 138
e 106 164
e 106 169
e 106 172
e 106 185
e 106 214
e 106 243
e 107 109
e 107 112
e 107 117
e 107 123
e 107 135
e 107 144
e 107 152
e 107 154
e 107 166
e 107 176
e 107 178
e 107 182
e 107 183
e 107 190
e 107 195
e 107 196
e 107 203
e 107 217
e 107 235
e 108 116
e 108 124
e 108 129
e 108 130
e 108 165
e 108 172
e 108 183
e 108 186
e 108 228
e 108 232
e 108 240
e 108 242
e 108 247
e 109 124
e 109 139
e 109 161
e 109 197
e 109 199
e 109 216
e 109 231
e 109 233
e 109 234
e 109 241
e 110 115
e 110 130
e 110 133
e 110 141
e 110 147
e 110 154
e 110 160
e 110 165
e 110 167
e 110 179
e 110 198
e 110 209
e 110 212
e 110 245
e 111 118
e 111 145
e 111 147
e 111 148
e 111 164
e 111 174
e 111 178
e 111 224
e 111 230
e 111 242
e 111 249
e 112 120
e 112 128
e 112 135
e 112 162
e 112 167
e 112 173
e 112 176
e 112 185
e 112 191
e 112 207
e 112 209
e 112 212
e 112 217
e 113 128
e 113 140
e 113 143
e 113 149
e 113 173
e 113 178
e 113 186
e 113 191
e 113 206
e 113 207
e 113 208
e 113 225
e 113 231
e 113 232
e 113 250
e 114 115
e 114 117
e 114 122
e 114 134
e 114 141
e 114 148
e 114 161
e 114 162
e 114 172
e 114 216
e 114 217
e 114 220
e 114 224
e 114 233
e 114 236
e 114 247
e 115 127
e 115 137
e 115 142
e 115 152
e 115 159
e 115 166
e 115 172
e 115 176
e 115 177
e 115 180
e 115 199
e 115 200
e 115 204
e 115 208
e 115 209
e 115 210
e 115 231
e 115 244
e 115 247
e 116 130
e 116 132
e 116 138
e 116 153
e 116 159
e 116 173
e 116 187
e 116 216
e 116 217
e 116 236
e 117 118
e 117 122
e 117 126
e 117 147
e 117 148
e 117 149
e 117 164
e 117 169
e 117 176
e 117 177
e 117 198
e 117 201
e 117 214
e 117 221
e 117 225
e 117 234
e 117 243
e 117 247
e 118 122
e 118 146
e 118 162
e 118 163
e 118 171
e 118 188
e 118 190
e 118 198
e 118 214
e 118 224
e 118 225
e 118 228
e 118 243
e 119 121
e 119 129
e 119 132
e 119 135
e 119 138
e 119 140
e 119 163
e 119 221
e 119 222
e 119 234
e 119 244
e 120 133
e 120 148
e 120 150
e 120 156
e 120 164
e 120 169
e 120 195
e 120 205
e 120 223
e 120 224
e 120 229
e 120 234
e 120 241
e 121 122
e 121 137
e 121 162
e 121 206
e 121 207
e 121 210
e 121 212
e 121 221
e 121 246
e 121 248
e 122 135
e 122 146
e 122 154
e 122 162
e 122 208
e 122 223
e 122 243
e 122 246
e 123 139
e 123 140
e 123 141
e 123 153
e 123 156
e 123 178
e 123 186
e 123 205
e 123 213
e 123 215
e 123 218
e 123 227
e 123 232
e 124 128
e 124 138
e 124 146
e 124 149
e 124 150
e 124 155
e 124 169
e 124 200
e 124 206
e 124 208
e 124 211
e 124 212
e 124 220
e 124 240
e 124 249
e 125 139
e 125 147
e 125 164
e 125 178
e 125 185
e 125 195
e 125 196
e 125 206
e 125 220
e 125 242
e 125 244
e 126 131
e 126 138
e 126 142
e 126 143
e 126 156
e 126 159
e 126 162
e 126 188
e 126 205
e 126 210
e 126 227
e 126 234
e 126 238
e 126 240
e 126 242
e 127 133
e 127 151
e 127 174
e 127 178
e 127 191
e 127 197
e 127 249
e 128 129
e 128 132
e 128 147
e 128 156
e 128 164
e 128 167
e 128 174
e 128 187
e 128 197
e 128 214
e 128 218
e 129 131
e 129 142
e 129 152
e 129 172
e 129 175
e 129 177
e 129 186
e 129 187
e 129 197
e 129 211
e 129 228
e 129 235
e 130 145
e 130 158
e 130 191
e 130 220
e 130 230
e 130 244
e 130 246
e 130 247
e 131 142
e 131 150
e 131 155
e 131 166
e 131 181
e 131 202
e 131 204
e 131 206
e 131 207
e 131 216
e 131 222
e 131 233
e 131 240
e 131 248
e 132 148
e 132 166
e 132 167
e 132 175
e 132 189
e 132 196
e 132 206
e 132 210
e 132 218
e 132 230
e 132 242
e 133 139
e 133 145
e 133 148
e 133 158
e 133 164
e 133 167
e 133 186
e 133 190
e 133 194
e 133 199
e 133 211
e 133 215
e 133 238
e 134 163
e 134 183
e 134 192
e 134 193
e 134 210
e 134 227
e 135 142
e 135 144
e 135 146
e 135 147
e 135 156
e 135 157
e 135 163
e 135 164
e 135 174
e 135 176
e 135 184
e 135 199
e 135 206
e 135 209
e 135 211
e 135 213
e 135 214
e 135 222
e 135 231
e 135 248
e 136 146
e 136 162
e 136 178
e 136 192
e 136 193
e 136 202
e 136 210
e 136 218
e 136 219
e 137 140
e 137 147
e 137 159
e 137 164
e 137 170
e 137 177
e 137 187
e 137 194
e 137 203
e 137 209
e 137 218
e 138 140
e 138 144
e 138 149
e 138 156
e 138 168
e 138 202
e 138 216
e 138 239
e 138 248
e 139 147
e 139 149
e 139 166
e 139 191
e 139 206
e 139 222
e 139 242
e 139 243
e 140 147
e 140 152
e 140 157
e 140 160
e 140 167
e 140 187
e 140 207
e 140 216
e 140 217
e 140 222
e 140 243
e 140 250
e 141 151
e 141 159
e 141 171
e 141 176
e 141 191
e 141 195
e 141 206
e 141 213
e 141 220
e 141 223
e 141 228
e 141 240
e 142 146
e 142 160
e 142 168
e 142 174
e 142 179
e 142 203
e 142 209
e 142 227
e 142 228
e 142 229
e 142 242
e 143 144
e 143 154
e 143 157
e 143 183
e 143 186
e 143 205
e 143 210
e 143 217
e 143 225
e 143 226
e 143 233
e 143 236
e 143 243
e 143 247
e 143 250
e 144 152
e 144 153
e 144 169
e 144 186
e 144 194
e 144 204
e 144 212
e 144 215
e 144 226
e 144 232
e 144 234
e 144 241
e 144 247
e 144 248
e 144 249
e 145 147
e 145 152
e 145 158
e 145 173
e 145 178
e 145 189
e 145 190
e 145 211
e 145 221
e 145 229
e 145 234
e 145 241
e 145 249
e 146 158
e 146 163
e 146 167
e 146 184
e 146 189
e 146 192
e 146 203
e 146 210
e 146 217
e 146 234
e 146 238
e 146 239
e 147 167
e 147 169
e 147 173
e 147 183
e 147 191
e 147 195
e 147 202
e 147 206
e 147 211
e 147 215
e 147 226
e 147 228
e 147 234
e 147 244
e 148 157
e 148 158
e 148 168
e 148 207
e 148 219
e 148 228
e 148 245
e 149 163
e 149 171
e 149 190
e 149 191
e 149 195
e 149 201
e 149 217
e 149 234
e 150 151
e 150 157
e 150 163
e 150 170
e 150 182
e 150 191
e 150 198
e 150 222
e 150 232
e 150 239
e 151 159
e 151 161
e 151 171
e 151 196
e 151 201
e 151 220
e 151 229
e 151 231
e 151 240
e 151 248
e 152 159
e 152 169
e 152 176
e 152 186
e 152 208
e 152 235
e 152 248
e 152 250
e 153 157
e 153 164
e 153 167
e 153 181
e 153 187
e 153 192
e 153 195
e 153 204
e 153 216
e 153 225
e 153 239
e 153 242
e 154 159
e 154 167
e 154 174
e 154 179
e 154 185
e 154 188
e 154 190
e 154 191
e 154 194
e 154 203
e 154 211
e 154 219
e 154 220
e 154 226
e 154 229
e 154 230
e 155 157
e 155 173
e 155 176
e 155 180
e 155 189
e 155 192
e 155 209
e 155 228
e 155 230
e 155 233
e 155 238
e 156 162
e 156 164
e 156 165
e 156 168
e 156 171
e 156 187
e 156 188
e 156 206
e 156 211
e 156 212
e 156 233
e 156 239
e 156 243
e 157 160
e 157 167
e 157 194
e 157 200
e 157 203
e 157 210
e 157 211
e 157 220
e 157 221
e 157 228
e 157 236
e 157 247
e 158 159
e 158 169
e 158 172
e 158 189
e 158 213
e 158 220
e 158 223
e 158 224
e 158 229
e 158 233
e 158 240
e 159 164
e 159 181
e 159 188
e 159 189
e 159 190
e 159 194
e 159 207
e 159 209
e 159 215
e 159 226
e 159 248
e 160 178
e 160 185
e 160 187
e 160 188
e 160 195
e 160 203
e 160 206
e 160 213
e 160 221
e 160 225
e 160 226
e 160 231
e 160 246
e 161 187
e 161 194
e 161 196
e 161 200
e 161 204
e 161 206
e 161 228
e 161 243
e 161 247
e 161 249
e 162 171
e 162 174
e 162 198
e 162 221
e 162 224
e 162 244
e 163 187
e 163 201
e 163 208
e 163 214
e 163 218
e 163 239
e 163 242
e 163 245
e 164 166
e 164 169
e 164 180
e 164 183
e 164 200
e 164 204
e 164 214
e 164 231
e 164 243
e 165 166
e 165 181
e 165 186
e 165 192
e 165 230
e 165 235
e 165 237
e 165 243
e 165 244
e 166 180
e 166 181
e 166 183
e 166 186
e 166 205
e 166 210
e 166 217
e 166 221
e 166 230
e 166 236
e 166 246
e 167 170
e 167 179
e 167 183
e 167 197
e 167 222
e 167 226
e 167 234
e 167 240
e 168 170
e 168 182
e 168 209
e 168 212
e 168 219
e 168 224
e 168 238
e 168 243
e 168 248
e 168 250
e 169 179
e 169 208
e 169 219
e 169 221
e 169 241
e 170 171
e 170 179
e 170 183
e 170 195
e 170 216
e 170 224
e 170 225
e 170 239
e 170 249
e 171 175
e 171 220
e 171 239
e 172 174
e 172 178
e 172 205
e 172 216
e 172 236
e 173 186
e 173 187
e 173 194
e 173 197
e 173 207
e 173 226
e 173 229
e 173 236
e 174 179
e 174 184
e 174 191
e 174 192
e 174 199
e 174 204
e 174 210
e 174 212
e 174 222
e 174 223
e 174 225
e 174 230
e 174 234
e 174 237
e 174 240
e 174 241
e 174 250
e 175 188
e 175 189
e 175 190
e 175 198
e 175 200
e 175 210
e 175 218
e 175 246
e 175 247
e 176 177
e 176 185
e 176 230
e 176 232
e 176 235
e 176 246
e 176 249
e 177 184
e 177 194
e 177 198
e 177 205
e 177 219
e 177 222
e 177 232
e 177 233
e 177 234
e 177 240
e 178 179
e 178 180
e 178 183
e 178 186
e 178 198
e 178 204
e 178 208
e 178 213
e 178 219
e 178 228
e 178 235
e 179 184
e 179 198
e 179 207
e 179 208
e 179 220
e 179 239
e 180 191
e 180 193
e 180 201
e 180 202
e 180 203
e 180 207
e 180 211
e 180 224
e 180 226
e 180 234
e 181 183
e 181 190
e 181 191
e 181 195
e 181 218
e 181 225
e 181 236
e 181 244
e 181 246
e 181 250
e 182 186
e 182 228
e 182 249
e 183 191
e 183 193
e 183 198
e 183 200
e 183 206
e 183 212
e 183 242
e 183 244
e 184 187
e 184 191
e 184 214
e 184 222
e 184 226
e 184 247
e 185 191
e 185 217
e 185 219
e 185 228
e 185 230
e 185 240
e 185 242
e 186 192
e 186 195
e 186 200
e 186 212
e 186 221
e 186 225
e 186 227
e 186 229
e 186 230
e 186 240
e 186 247
e 187 198
e 187 202
e 187 204
e 187 210
e 187 214
e 187 224
e 187 225
e 187 232
e 187 234
e 187 243
e 188 189
e 188 193
e 188 200
e 188 201
e 188 204
e 188 205
e 188 215
e 188 239
e 188 247
e 189 191
e 189 211
e 189 226
e 189 237
e 189 240
e 189 242
e 190 196
e 190 203
e 190 204
e 190 211
e 190 220
e 190 224
e 190 226
e 190 239
e 190 241
e 190 250
e 191 192
e 191 198
e 191 204
e 191 212
e 191 214
e 191 219
e 191 221
e 191 234
e 191 238
e 192 229
e 192 244
e 192 248
e 193 205
e 193 232
e 194 202
e 194 203
e 194 208
e 194 239
e 194 247
e 195 205
e 195 212
e 195 216
e 196 205
e 196 213
e 196 214
e 196 236
e 197 198
e 197 205
e 197 210
e 197 236
e 197 248
e 198 207
e 198 225
e 198 230
e 198 250
e 199 204
e 199 205
e 199 215
e 199 216
e 199 225
e 199 232
e 199 237
e 199 238
e 199 250
e 200 206
e 200 208
e 200 213
e 200 216
e 200 233
e 200 248
e 201 208
e 202 219
e 202 224
e 202 231
e 202 232
e 203 205
e 203 214
e 203 217
e 203 219
e 203 222
e 203 239
e 203 240
e 203 242
e 204 227
e 204 243
e 205 207
e 205 235
e 205 244
e 205 246
e 206 233
e 206 238
e 206 248
e 207 235
e 207 242
e 207 248
e 208 222
e 208 231
e 208 235
e 208 240
e 208 245
e 209 212
e 209 220
e 209 228
e 209 230
e 209 238
e 209 246
e 209 248
e 209 250
e 210 218
e 210 224
e 210 232
e 210 235
e 211 219
e 211 229
e 211 233
e 212 217
e 212 224
e 212 227
e 212 234
e 212 236
e 213 215
e 213 223
e 213 224
e 213 234
e 213 243
e 214 227
e 214 230
e 214 245
e 214 250
e 215 216
e 216 224
e 216 237
e 216 238
e 217 235
e 217 237
e 217 240
e 217 245
e 217 249
e 218 223
e 218 246
e 218 249
e 220 221
e 220 248
e 221 234
e 222 226
e 222 238
e 222 241
e 222 248
e 223 227
e 223 228
e 223 230
e 224 226
e 224 246
e 226 233
e 226 245
e 226 248
e 227 235
e 227 245
e 227 249
e 228 237
e 228 241
e 229 236
e 229 243
e 230 235
e 230 238
e 231 232
e 231 235
e 231 239
e 231 250
e 232 241
e 232 244
e 232 249
e 233 237
e 233 241
e 233 246
e 234 237
e 234 241
e 235 238
e 238 240
e 238 245
e 239 246
e 243 249
e 244 246
e 248 249
